! Solving for graph /home/truongxuanhieu/CPLEX-CP-for-MinSpanLabeling/benchmarks/cabp/T-dwt__592.mtx.rnd
! Target value is set to 141
! Lower bound is set to 142
! Upper bound is set to 740
! Time limit is set to 1800
! Vertices mode is set to Has hole
! Target value mode is set to Cyclic
 ! --------------------------------------------------- CP Optimizer 22.2.0.0 --
 ! Minimization problem - 593 variables, 2258 constraints, 1 phase
 ! TimeLimit            = 1800
 ! LogVerbosity         = Terse
 ! Initial process time : 0.07s (0.07s extraction + 0.00s propagation)
 !  . Log search space  : 5650.4 (before), 5650.4 (after)
 !  . Memory usage      : 4.4 MB (before), 4.4 MB (after)
 ! Using parallel search with 8 workers.
 ! ----------------------------------------------------------------------------
 !          Best Branches  Non-fixed    W       Branch decision
                        0        593                 -
 + New bound is 282
 *           735      663  0.27s        3      (gap is 61.63%)
 *           726      982  0.27s        8      (gap is 61.16%)
 *           725     2979  0.40s        8      (gap is 61.10%)
 *           705    12548  1.25s        5      (gap is 60.00%)
 *           599    19794  2.75s        4      (gap is 52.92%)
 *           598    33549  3.20s        1      (gap is 52.84%)
 *           597    34055  3.27s        1      (gap is 52.76%)
 *           580    24503  3.32s        4      (gap is 51.38%)
 *           579    37432  4.12s        1      (gap is 51.30%)
 *           578    37975  4.18s        1      (gap is 51.21%)
 *           577    38546  4.18s        1      (gap is 51.13%)
 *           571    33893  4.25s        4      (gap is 50.61%)
 *           570    57428  6.41s        1      (gap is 50.53%)
 *           569    57850  6.41s        1      (gap is 50.44%)
 *           568    58519  6.53s        1      (gap is 50.35%)
 *           567    58876  6.63s        1      (gap is 50.26%)
 *           566    59243  6.71s        1      (gap is 50.18%)
 *           565    62101  7.15s        1      (gap is 50.09%)
 *           564    54663  8.10s        4      (gap is 50.00%)
 ! Time = 8.10s, Average fail depth = 167, Memory usage = 116.6 MB
 ! Current bound is 282 (gap is 50.00%)
 !          Best Branches  Non-fixed    W       Branch decision
             564    1028k        591    1   F        -
 + New bound is 290 (gap is 48.58%)
             564    1050k        580    1   F        -
 + New bound is 291 (gap is 48.40%)
             564    1050k        580    1   F        -
 + New bound is 299 (gap is 46.99%)
             564    1050k        580    1   F        -
 + New bound is 300 (gap is 46.81%)
             564    1264k        592    1   F        -
 + New bound is 307 (gap is 45.57%)
             564    1264k        592    1   F   166 != _int295
 + New bound is 308 (gap is 45.39%)
             564    1421k        271    1   F   173 != _int295
 + New bound is 315 (gap is 44.15%)
             564    1699k        590    1   F        -
 + New bound is 322 (gap is 42.91%)
             564    1721k        582    1   F        -
 + New bound is 323 (gap is 42.73%)
             564    1744k        589    1   F   188 != _int296
 + New bound is 330 (gap is 41.49%)
             564    1744k        589    1   F   189 != _int296
 + New bound is 331 (gap is 41.31%)
             564    1860k        581    4   F        -
 + New bound is 338 (gap is 40.07%)
             564    1905k        584    4   F        -
 + New bound is 345 (gap is 38.83%)
             564    2097k        591    1   F        -
 + New bound is 346 (gap is 38.65%)
             564    2118k        593    1            -
 + New bound is 564 (gap is 0.00%)
 ! ----------------------------------------------------------------------------
 ! Search completed, 19 solutions found.
 ! Best objective         : 564 (optimal - effective tol. is 0)
 ! Best bound             : 564
 ! ----------------------------------------------------------------------------
 ! Number of branches     : 16990420
 ! Number of fails        : 8250281
 ! Total memory usage     : 195.8 MB (193.5 MB CP Optimizer + 2.2 MB Concert)
 ! Time spent in solve    : 295.87s (295.81s engine + 0.07s extraction)
 ! Search speed (br. / s) : 57438.9
 ! ----------------------------------------------------------------------------
! --------------------------------------------------------
! Best span = 564
! Labeling: 564 141 282 141 141 423 282 564 282 282 564 564 282 423 141 141 423 564 564 141 282 282 423 141 282 282 141 141 282 141 423 564 282 564 423 282 141 564 423 141 423 423 564 564 423 564 141 282 423 423 423 423 423 282 564 423 282 564 564 423 282 141 423 423 423 564 141 141 423 423 282 564 564 141 423 564 282 564 423 282 141 564 141 141 423 423 282 282 564 564 564 282 141 141 282 423 564 282 141 564 564 282 423 564 141 564 141 564 282 564 423 423 564 423 141 282 282 282 423 564 282 141 564 564 282 141 141 423 423 282 423 282 282 141 141 141 564 141 282 564 564 141 282 141 423 423 141 141 564 564 282 423 282 423 141 141 423 423 423 423 564 141 423 141 423 564 282 423 282 141 423 423 564 141 564 282 282 282 141 423 423 564 141 564 423 423 423 141 564 564 564 564 282 141 282 564 423 282 282 141 282 141 141 141 564 141 282 564 282 141 564 141 282 564 282 423 564 141 282 282 423 141 564 423 141 423 141 141 423 282 282 141 141 564 423 564 564 423 141 423 423 282 282 141 282 423 423 564 423 141 141 564 564 564 564 141 423 564 282 423 423 423 282 423 141 423 141 564 423 564 141 141 564 282 141 564 564 423 282 141 282 282 141 564 423 564 282 564 282 423 141 141 282 282 423 282 564 141 564 423 564 141 564 423 564 423 423 423 564 564 282 282 141 282 282 141 282 282 423 282 423 423 282 141 564 141 564 423 423 141 282 141 423 423 564 423 282 564 564 141 564 423 423 282 282 423 141 282 423 564 423 282 564 282 141 141 423 423 282 282 564 564 282 564 423 423 564 564 423 282 564 282 564 564 282 282 564 564 282 282 141 423 423 141 141 141 282 564 423 141 282 423 282 282 423 564 282 564 564 141 423 282 282 564 282 564 564 141 282 141 282 282 141 282 564 423 564 141 423 564 282 141 141 282 423 423 423 141 423 282 282 141 282 141 564 564 423 423 282 141 564 282 282 282 564 564 423 141 141 564 564 423 564 423 564 141 141 282 423 282 423 141 564 423 141 423 141 564 564 564 282 282 423 282 282 564 564 282 423 564 423 564 282 282 141 423 141 141 423 423 141 423 141 141 423 141 282 141 282 564 282 141 141 141 141 564 141 564 141 141 282 282 141 282 282 423 141 141 141 564 423 423 141 564 423 282 564 282 141 141 564 141 282 423 141 564 423 423 282 141 564 564 141 423 423 423 282 141 141 141 141 564 141 423 282 282 564 564 141 141 141 423 282 282 423 564 282 282 282 423 141 282 141 141 282 282 564 282 282 564 423 564 282 564 423 282 564 141 564 423 564 564 
! -------------------------------------------------------- 
